7
0 5052 1512 2086 2152 3678 3821 
1622 0 4976 8630 1923 4291 9328 
5263 3521 0 9542 7281 9133 3128
2821 3521 2152 0 5210 3912 9231 
3632 2506 3012 2314 0 5322 3928 
7221 3521 2152 9542 6727 0 9231 
7523 3911 1923 3742 4281 3219 0
18108
0 4 3 2 6 5 1 0